(set-logic QF_BV)
(set-info :source |Converted by Dunbo Cai. dunbocai@gmail.com|)
(set-info :smt-lib-version 2.0)
(set-info :category "convex body with variables with domain [-15, 15]")
(declare-fun x_0 () (_ BitVec 32))
(declare-fun x_1 () (_ BitVec 32))
(declare-fun x_2 () (_ BitVec 32))
(declare-fun x_3 () (_ BitVec 32))
(declare-fun x_4 () (_ BitVec 32))
(declare-fun x_5 () (_ BitVec 32))
(assert (bvsge x_0 (bvsub (_ bv0 32) (_ bv15 32))) )
(assert (bvsle x_0 (_ bv15 32)) )
(assert (bvsge x_1 (bvsub (_ bv0 32) (_ bv15 32))) )
(assert (bvsle x_1 (_ bv15 32)) )
(assert (bvsge x_2 (bvsub (_ bv0 32) (_ bv15 32))) )
(assert (bvsle x_2 (_ bv15 32)) )
(assert (bvsge x_3 (bvsub (_ bv0 32) (_ bv15 32))) )
(assert (bvsle x_3 (_ bv15 32)) )
(assert (bvsge x_4 (bvsub (_ bv0 32) (_ bv15 32))) )
(assert (bvsle x_4 (_ bv15 32)) )
(assert (bvsge x_5 (bvsub (_ bv0 32) (_ bv15 32))) )
(assert (bvsle x_5 (_ bv15 32)) )
(assert (bvsle (bvadd (bvmul (bvsdiv (_ bv60 32) (_ bv1 32) ) x_1 )(bvmul (bvsub (_ bv0 32) (bvsdiv (_ bv245 32) (_ bv1 32) )) x_2 )(bvmul (bvsdiv (_ bv70 32) (_ bv1 32) ) x_3 )(bvmul (bvsdiv (_ bv84 32) (_ bv1 32) ) x_4 )) (bvmul (bvsdiv (_ bv1030 32) (_ bv1 32) ) (_ bv1 32) ) )) 
(assert (bvsle (bvadd (bvmul (bvsdiv (_ bv1176 32) (_ bv1 32) ) x_0 )(bvmul (bvsdiv (_ bv144 32) (_ bv1 32) ) x_2 )(bvmul (bvsdiv (_ bv224 32) (_ bv1 32) ) x_3 )(bvmul (bvsub (_ bv0 32) (bvsdiv (_ bv21 32) (_ bv1 32) )) x_4 )(bvmul (bvsdiv (_ bv672 32) (_ bv1 32) ) x_5 )) (bvmul (bvsub (_ bv0 32) (bvsdiv (_ bv6608 32) (_ bv1 32) )) (_ bv1 32) ) )) 
(assert (bvsle (bvadd (bvmul (bvsdiv (_ bv36 32) (_ bv1 32) ) x_0 )(bvmul (bvsdiv (_ bv16 32) (_ bv1 32) ) x_2 )(bvmul (bvsdiv (_ bv18 32) (_ bv1 32) ) x_4 )(bvmul (bvsub (_ bv0 32) (bvsdiv (_ bv81 32) (_ bv1 32) )) x_5 )) (bvmul (bvsub (_ bv0 32) (bvsdiv (_ bv513 32) (_ bv1 32) )) (_ bv1 32) ) )) 
(assert (bvsle (bvadd (bvmul (bvsub (_ bv0 32) (bvsdiv (_ bv24 32) (_ bv1 32) )) x_1 )(bvmul (bvsdiv (_ bv45 32) (_ bv1 32) ) x_3 )(bvmul (bvsdiv (_ bv54 32) (_ bv1 32) ) x_4 )(bvmul (bvsdiv (_ bv25 32) (_ bv1 32) ) x_5 )) (bvmul (bvsdiv (_ bv89 32) (_ bv1 32) ) (_ bv1 32) ) )) 
(assert (bvsle (bvadd (bvmul (bvsub (_ bv0 32) (bvsdiv (_ bv49 32) (_ bv1 32) )) x_0 )(bvmul (bvsub (_ bv0 32) (bvsdiv (_ bv56 32) (_ bv1 32) )) x_1 )(bvmul (bvsdiv (_ bv168 32) (_ bv1 32) ) x_3 )(bvmul (bvsub (_ bv0 32) (bvsdiv (_ bv64 32) (_ bv1 32) )) x_4 )(bvmul (bvsub (_ bv0 32) (bvsdiv (_ bv168 32) (_ bv1 32) )) x_5 )) (bvmul (bvsub (_ bv0 32) (bvsdiv (_ bv1407 32) (_ bv1 32) )) (_ bv1 32) ) )) 
(assert (bvsle (bvadd (bvmul (bvsub (_ bv0 32) (bvsdiv (_ bv56 32) (_ bv1 32) )) x_1 )(bvmul (bvsdiv (_ bv36 32) (_ bv1 32) ) x_3 )(bvmul (bvsub (_ bv0 32) (bvsdiv (_ bv63 32) (_ bv1 32) )) x_5 )) (bvmul (bvsub (_ bv0 32) (bvsdiv (_ bv39 32) (_ bv1 32) )) (_ bv1 32) ) )) 

(check-sat)
(exit)